NAME          
ROWS
 N  OBJ
 L  c1
 L  c2
 L  c3
 L  c4
 L  c5
COLUMNS
    MARKER    'MARKER'                 'INTORG'
    x[1]      c1        933
    x[1]      c2        383
    x[1]      c3        156
    x[1]      c4        362
    x[1]      c5        80
    x[1]      OBJ       -324
    x[2]      c1        775
    x[2]      c2        665
    x[2]      c3        326
    x[2]      c4        993
    x[2]      c5        342
    x[2]      OBJ       -914
    x[3]      c1        770
    x[3]      c2        362
    x[3]      c3        140
    x[3]      c4        761
    x[3]      c5        339
    x[3]      OBJ       -605
    x[4]      c1        526
    x[4]      c2        29
    x[4]      c3        93
    x[4]      c4        890
    x[4]      c5        396
    x[4]      OBJ       -62
    x[5]      c1        225
    x[5]      c2        220
    x[5]      c3        47
    x[5]      c4        934
    x[5]      c5        168
    x[5]      OBJ       -440
    x[6]      c1        3
    x[6]      c2        171
    x[6]      c3        41
    x[6]      c4        876
    x[6]      c5        269
    x[6]      OBJ       -998
    x[7]      c1        710
    x[7]      c2        615
    x[7]      c3        696
    x[7]      c4        407
    x[7]      c5        102
    x[7]      OBJ       -692
    x[8]      c1        761
    x[8]      c2        520
    x[8]      c3        839
    x[8]      c4        834
    x[8]      c5        562
    x[8]      OBJ       -439
    x[9]      c1        735
    x[9]      c2        283
    x[9]      c3        307
    x[9]      c4        649
    x[9]      c5        486
    x[9]      OBJ       -267
    x[10]     c1        57
    x[10]     c2        34
    x[10]     c3        158
    x[10]     c4        865
    x[10]     c5        290
    x[10]     OBJ       -533
    x[11]     c1        625
    x[11]     c2        816
    x[11]     c3        834
    x[11]     c4        196
    x[11]     c5        254
    x[11]     OBJ       -966
    x[12]     c1        200
    x[12]     c2        756
    x[12]     c3        246
    x[12]     c4        57
    x[12]     c5        703
    x[12]     OBJ       -759
    x[13]     c1        396
    x[13]     c2        498
    x[13]     c3        169
    x[13]     c4        904
    x[13]     c5        887
    x[13]     OBJ       -375
    x[14]     c1        56
    x[14]     c2        178
    x[14]     c3        941
    x[14]     c4        971
    x[14]     c5        293
    x[14]     OBJ       -850
    x[15]     c1        454
    x[15]     c2        23
    x[15]     c3        925
    x[15]     c4        60
    x[15]     c5        194
    x[15]     OBJ       -68
RHS
    rhs       c1        3613
    rhs       c2        2776
    rhs       c3        2959
    rhs       c4        4880
    rhs       c5        2682
RANGES
BOUNDS
 BV bounds    x[1]
 BV bounds    x[2]
 BV bounds    x[3]
 BV bounds    x[4]
 BV bounds    x[5]
 BV bounds    x[6]
 BV bounds    x[7]
 BV bounds    x[8]
 BV bounds    x[9]
 BV bounds    x[10]
 BV bounds    x[11]
 BV bounds    x[12]
 BV bounds    x[13]
 BV bounds    x[14]
 BV bounds    x[15]
ENDATA
